NAME : kroC100-C-5-1-a__learnable_bias_same_priority_ls20__26431.tour
COMMENT : Length = 26431.000
COMMENT : Generated by evaluate_ctspd.py for learnable_bias_same_priority_ls20
TYPE : TOUR
DIMENSION : 100
TOUR_SECTION
1
10
92
66
44
48
84
11
52
87
96
97
81
45
51
16
37
29
46
61
9
78
82
7
26
32
24
53
27
15
13
79
64
20
42
55
67
31
65
77
80
47
6
54
75
22
8
17
25
90
34
58
98
88
28
39
38
71
56
43
5
72
83
62
2
30
68
35
50
86
95
94
91
76
70
23
21
89
41
59
73
3
69
74
100
33
57
36
14
99
19
63
18
49
93
4
60
12
40
85
-1
EOF
